30
1 0 16
2 0 8
2 1 4
3 0 5
3 1 9
3 2 20
4 0 10
4 2 12
5 0 17
5 1 11
5 2 2
5 4 13
6 0 19
6 1 17
6 2 15
6 5 19
7 0 3
7 1 6
7 2 19
7 6 17
8 0 19
8 1 8
8 5 14
8 6 15
9 0 1
9 2 12
9 3 13
9 5 13
9 6 6
9 7 13
9 8 20
10 0 12
10 1 1
10 2 2
10 3 20
10 6 8
10 8 3
11 3 15
11 4 15
11 5 16
11 7 20
11 8 9
11 10 3
12 1 2
12 3 12
12 4 6
12 5 19
12 6 4
12 7 17
12 9 12
12 10 18
12 11 13
13 0 6
13 4 7
13 5 20
13 6 1
13 7 1
13 8 17
14 2 13
14 3 2
14 5 7
14 6 9
14 8 17
14 9 13
14 10 16
14 11 2
14 12 1
14 13 20
15 1 2
15 2 14
15 3 19
15 6 3
15 9 11
15 11 2
15 13 1
15 14 4
16 2 4
16 3 3
16 6 20
16 7 16
16 11 7
16 12 11
16 14 10
16 15 5
17 0 6
17 1 14
17 2 14
17 3 7
17 6 7
17 7 15
17 8 3
17 10 9
17 11 10
17 12 8
17 13 14
17 14 16
17 16 6
18 1 12
18 2 9
18 6 4
18 7 6
18 14 8
18 16 14
19 1 11
19 2 8
19 3 11
19 4 6
19 7 16
19 9 7
19 11 4
19 13 19
19 14 16
19 16 9
19 17 8
20 1 4
20 2 17
20 4 3
20 5 19
20 6 5
20 8 12
20 10 1
20 11 14
20 13 1
20 14 4
20 16 9
20 17 3
20 18 12
20 19 15
21 0 4
21 1 7
21 3 20
21 4 5
21 5 17
21 6 1
21 7 10
21 8 14
21 9 9
21 10 14
21 11 9
21 12 20
21 13 1
21 14 8
21 15 18
21 16 16
22 0 3
22 1 3
22 4 14
22 5 12
22 7 14
22 8 13
22 10 19
22 11 3
22 12 4
22 14 11
22 16 5
22 17 5
22 18 7
22 19 12
22 20 17
22 21 4
23 0 8
23 2 13
23 3 8
23 4 17
23 6 19
23 7 14
23 9 10
23 11 10
23 13 15
23 14 7
23 15 18
23 17 12
23 18 18
23 19 7
23 20 18
23 22 18
24 0 16
24 1 14
24 3 12
24 5 19
24 6 9
24 7 12
24 8 6
24 9 20
24 10 15
24 12 12
24 13 2
24 15 10
24 16 17
24 17 11
24 19 11
25 0 10
25 1 1
25 3 11
25 4 4
25 5 8
25 6 17
25 8 6
25 9 10
25 10 6
25 12 4
25 15 1
25 16 19
25 18 14
25 19 18
25 20 4
25 21 4
25 22 11
26 0 7
26 1 5
26 2 6
26 4 1
26 5 3
26 8 20
26 9 16
26 10 8
26 12 19
26 13 18
26 14 9
26 15 6
26 17 1
26 18 13
26 23 14
26 24 18
26 25 11
27 1 8
27 3 6
27 4 17
27 6 13
27 7 18
27 9 15
27 10 9
27 14 19
27 15 1
27 16 12
27 18 6
27 19 19
27 25 14
27 26 5
28 0 14
28 1 4
28 2 4
28 3 18
28 8 2
28 9 13
28 10 1
28 11 5
28 12 18
28 15 3
28 18 6
28 19 9
28 22 5
28 23 15
28 24 4
28 25 5
28 26 11
29 2 11
29 3 7
29 4 1
29 5 7
29 6 1
29 9 2
29 10 8
29 11 1
29 12 5
29 13 3
29 14 19
29 16 17
29 17 18
29 18 12
29 19 18
29 21 12
29 24 17
29 25 19
29 26 16
29 27 3
